c --- [ banner ] -------------------------------------------------------------
c 
c CaDiCaL Radically Simplified CDCL SAT Solver
c Copyright (c) 2016-2021 A. Biere, M. Fleury, N. Froleyks
c 
c Version 1.5.2 9c38a080b32c28d805e8e6ca21849856b0cda605
c g++ (Ubuntu 7.5.0-3ubuntu1~18.04) 7.5.0 -Wall -Wextra -O3 -DNDEBUG
c Wed Feb 16 23:15:36 EST 2022 Linux fac-vanhoeve01 5.4.0-99-generic x86_64
c 
c --- [ limit ] --------------------------------------------------------------
c 
c setting time limit to 600 seconds real time (due to '-t 600')
c setting conflict limit to 1000000000 conflicts (due to '1000000000')
c 
c --- [ parsing input ] ------------------------------------------------------
c 
c reading DIMACS file from 'ddfwcnfs/queen13_13.col_13.cnf'
c opening file to read 'ddfwcnfs/queen13_13.col_13.cnf'
c found 'p cnf 2197 38519' header
c parsed 38519 clauses in 0.02 seconds process time
c closing file 'ddfwcnfs/queen13_13.col_13.cnf'
c after reading 502546 bytes 0.5 MB
c 
c --- [ options ] ------------------------------------------------------------
c 
c all options are set to their default value
c 
c --- [ solving ] ------------------------------------------------------------
c 
c time measured in process time since initialization
c 
c  seconds  reductions  redundant  irredundant
c         MB    restarts       trail     variables
c          level   conflicts       glue       remaining
c 
c *  0.02  7  0 0   0    0    0  0% 0 38350 2028 92%
c {  0.02  7  0 0   0    0    0  0% 0 38350 2028 92%
c -  0.04  8 12 1   0  300  112 28% 9 38350 2028 92%
c -  0.06  9 12 2  17  900  339 28% 9 38350 2028 92%
c }  0.06  9 11 2  17 1000  388 28% 9 38350 2028 92%
c [  0.06  9  0 2  17 1000  388  0% 0 38350 2028 92%
c O  0.06  9 23 2  17 1002  390 32% 12 38350 2028 92%
c -  0.09  9 15 3  17 1800  693 28% 12 38350 2028 92%
c ]  0.12  9 16 3  18 3004 1558 27% 13 38350 2028 92%
c {  0.12  9 11 3  18 3004 1558 28% 9 38350 2028 92%
c -  0.12  9 11 4  18 3004 1114 28% 9 38350 2028 92%
c F  0.12  9 11 4  18 3005 1115 28% 9 38350 2028 92%
c -  0.16  9 12 5  89 4504 1002 28% 10 38350 2028 92%
c #  0.30  9 24 5 433 6006 2394 45% 15 38350 2028 92%
c -  0.32  9 23 6 440 6304 1829 44% 15 38350 2028 92%
c }  0.34  9 22 6 440 7004 2203 42% 14 38350 2028 92%
c [  0.34  9 16 6 440 7004 2203 27% 13 38350 2028 92%
c -  0.39  9 20 7 441 8406 1943 33% 16 38350 2028 92%
c s  0.40 10 20 7 441 8483 1751 34% 16 38350 2028 92%
c e  0.49 10 20 7 441 8483   87 34% 16 28178 1560 71%
c 
c  seconds  reductions  redundant   irredundant
c         MB    restarts       trail      variables
c          level   conflicts       glue        remaining
c 
c ^  0.51 10 20 7 441 8483   87 34% 16 28178 1560 71%
c I  0.56  9 21 7 442 10009 1200 28% 16 28178 1560 71%
c -  0.65 10 39 8 443 10806 1931 48% 23 28178 1560 71%
c -  0.97 11 71 9 445 13507 3181 67% 37 28178 1560 71%
c ]  1.19 11 81 9 445 15004 4646 71% 42 28178 1560 71%
c {  1.19 11 22 9 445 15004 4646 60% 14 28178 1560 71%
c B  1.19 11 22 9 446 15013 4654 60% 15 28178 1560 71%
c -  1.38 11 31 10 816 16509 3945 64% 18 28178 1560 71%
c -  1.81 11 38 11 1505 19810 3870 66% 21 28178 1560 71%
c W  2.03 11 40 11 1800 21015 5031 67% 22 28178 1560 71%
c -  2.18 12 37 12 1947 23410 3825 62% 21 28178 1560 71%
c s  2.27 12 34 12 1947 25185 4388 57% 20 28178 1560 71%
c s  2.35 12 34 12 1947 25185 3895 57% 20 28178 1560 71%
c ^  2.36 12 34 12 1947 25185 3895 57% 20 28178 1560 71%
c -  2.44 12 32 13 1947 27310 3404 53% 19 28178 1560 71%
c F  2.46 12 31 13 1947 28016 3895 51% 18 28178 1560 71%
c }  2.58 12 29 13 1947 31005 6200 47% 17 28178 1560 71%
c [  2.58 12 81 13 1947 31005 6200 71% 42 28178 1560 71%
c -  2.61 12 78 14 1947 31510 4105 68% 40 28178 1560 71%
c -  2.76 13 60 15 1950 36011 4480 50% 32 28178 1560 71%
c 
c  seconds  reductions     redundant   irredundant
c         MB     restarts         trail      variables
c          level      conflicts       glue        remaining
c 
c B  2.76 13 60 15 1950 36018 4485 50% 32 28178 1560 71%
c -  3.27 15 77 16 1953 40813 5736 60% 37 28178 1560 71%
c W  3.75 15 75 16 1954 45019 9724 65% 38 28178 1560 71%
c -  3.86 13 75 17 1955 45914 6502 66% 38 28178 1560 71%
c s  4.36 13 72 17 1955 50235 10031 69% 39 28178 1560 71%
c w  4.40 13 72 17 1955 50235 10031 69% 39 28178 1560 71%
c s  4.47 13 72 17 1955 50235 9888 69% 39 28178 1560 71%
c ^  4.48 13 72 17 1955 50235 9888 69% 39 28178 1560 71%
c -  4.64 14 71 18 1955 51316 6945 69% 39 28178 1560 71%
c O  5.02 14 70 18 1956 55020 10331 71% 39 28178 1560 71%
c -  5.09 14 66 19 1958 57016 6901 68% 37 28178 1560 71%
c ]  5.30 14 58 19 1962 63005 10825 60% 34 28178 1560 71%
c {  5.30 14 29 19 1962 63005 10825 47% 17 28178 1560 71%
c -  5.31 14 29 20 1962 63016 5829 47% 17 28178 1560 71%
c B  5.43 14 27 20 1971 66022 7836 44% 17 28178 1560 71%
c -  5.59 14 27 21 2113 69317 6181 42% 17 28178 1560 71%
c -  5.85 14 24 22 2113 75918 6099 38% 15 28178 1560 71%
c W  5.99 14 23 22 2113 78024 7513 37% 15 28178 1560 71%
c -  6.18 14 22 23 2230 82819 6275 36% 15 28178 1560 71%
c s  6.23 14 22 23 2230 83635 6080 36% 15 28178 1560 71%
c 
c  seconds  reductions     redundant   irredundant
c         MB     restarts         trail      variables
c          level      conflicts       glue        remaining
c 
c w  6.25 14 22 23 2230 83635 6080 36% 15 28178 1560 71%
c s  6.31 14 22 23 2230 83635 5797 36% 15 28178 1560 71%
c ^  6.31 14 22 23 2230 83635 5797 36% 15 28178 1560 71%
c -  6.61 14 22 24 2515 90023 6188 35% 15 28178 1560 71%
c #  6.63 14 22 24 2515 91025 6662 35% 14 28178 1560 71%
c -  6.83 14 21 25 2524 97525 6031 34% 14 28178 1560 71%
c B  7.15 14 19 25 2524 105032 11050 32% 14 28178 1560 71%
c -  7.17 14 20 26 2549 105327 7083 32% 14 28178 1560 71%
c -  7.43 14 19 27 2601 113428 6313 31% 13 28178 1560 71%
c W  7.77 14 18 27 2657 120033 10230 30% 13 28178 1560 71%
c -  7.86 14 18 28 2663 121831 6835 30% 13 28178 1560 71%
c s  7.99 14 18 28 2678 125385 8290 30% 13 28178 1560 71%
c s  8.07 14 18 28 2678 125385 8071 30% 13 28178 1560 71%
c ^  8.07 14 18 28 2678 125385 8071 30% 13 28178 1560 71%
c }  8.13 14 17 28 2678 127007 9006 30% 13 28178 1560 71%
c [  8.13 14 58 28 2678 127007 9006 60% 34 28178 1560 71%
c -  8.27 14 55 29 2678 130532 7284 56% 32 28178 1560 71%
c B  8.51 14 51 29 2683 136034 11179 52% 30 28178 1560 71%
c -  8.93 16 57 30 2685 139533 9614 54% 33 28178 1560 71%
c - 10.21 18 62 31 2686 148833 11269 60% 37 28178 1560 71%
c 
c  seconds  reductions       redundant   irredundant
c         MB     restarts           trail      variables
c          level      conflicts         glue        remaining
c 
c W 10.94 18 64 31 2687 153036 15102 61% 38 28178 1560 71%
c - 11.85 18 63 32 2687 158433 12176 64% 39 28178 1560 71%
c - 13.48 15 63 33 2688 168337 12668 67% 40 28178 1560 71%
c I 13.82 15 64 33 2690 171040 14950 67% 41 28178 1560 71%
c s 14.39 15 71 33 2693 175488 18880 68% 44 28178 1560 71%
c w 14.43 15 71 33 2693 175488 18878 68% 44 28178 1560 71%
c s 14.51 15 71 33 2693 175488 18826 68% 44 28178 1560 71%
c - 14.94 20 72 34 2694 178539 13612 69% 45 28178 1560 71%
c - 16.77 20 76 35 2701 189039 13965 71% 48 28178 1560 71%
c B 16.96 20 76 35 2701 190041 14910 72% 48 28178 1560 71%
c - 18.83 20 78 36 2702 199840 14550 73% 50 28178 1560 71%
c W 20.80 20 80 36 2709 210044 23657 75% 53 28178 1560 71%
c - 21.00 21 80 37 2709 210940 14980 75% 53 28178 1560 71%
c - 23.17 18 80 38 2716 222340 14745 76% 54 28178 1560 71%
c O 24.79 18 80 38 2717 231047 22140 77% 55 28178 1560 71%
c - 24.92 22 77 39 2717 234042 14932 75% 53 28178 1560 71%
c - 25.44 22 69 40 2718 246043 12100 67% 48 28178 1560 71%
c B 25.73 22 66 40 2719 253049 17093 63% 45 28178 1560 71%
c ] 25.93 22 69 40 2719 255007 18964 64% 46 28178 1560 71%
c { 25.93 22 17 40 2719 255007 18964 30% 13 28178 1560 71%
c 
c  seconds  reductions       redundant   irredundant
c         MB     restarts           trail      variables
c          level      conflicts         glue        remaining
c 
c - 26.11 22 18 41 2919 258343 12334 30% 13 28178 1560 71%
c - 26.61 22 17 42 3100 270943 10654 29% 13 28178 1560 71%
c F 26.86 22 17 42 3299 276050 14116 29% 13 28178 1560 71%
c - 27.17 22 17 43 3326 283847 10965 29% 13 28178 1560 71%
c - 27.74 22 16 44 3439 297049 10344 28% 12 28178 1560 71%
c B 27.87 22 16 44 3474 300052 11810 28% 12 28178 1560 71%
c - 28.36 22 17 45 3935 310551 11081 29% 12 28178 1560 71%
c - 28.88 22 16 46 4087 324352 11268 28% 12 28178 1560 71%
c W 29.14 22 16 46 4101 325053 11668 28% 12 28178 1560 71%
c - 29.70 22 16 47 4691 338452 11923 28% 12 28178 1560 71%
c # 30.12 22 16 47 5026 351057 19088 28% 12 28178 1560 71%
c - 30.19 22 16 48 5051 352852 11664 28% 12 28178 1560 71%
c - 30.89 22 17 49 5933 367552 12826 29% 13 28178 1560 71%
c B 31.26 22 17 49 6033 378058 18620 28% 13 28178 1560 71%
c - 31.85 22 18 50 6855 382552 12899 30% 13 28178 1560 71%
c - 33.00 22 20 51 8645 397856 14562 33% 14 28178 1560 71%
c W 33.99 22 22 51 9725 406060 20852 35% 15 28178 1560 71%
c - 34.28 22 21 52 9869 413456 14934 34% 15 28178 1560 71%
c - 34.91 22 20 53 9887 429357 14291 33% 14 28178 1560 71%
c F 35.15 22 20 53 9889 435061 17786 32% 14 28178 1560 71%
c 
c  seconds  reductions       redundant   irredundant
c         MB     restarts           trail      variables
c          level      conflicts         glue        remaining
c 
c - 35.55 22 19 54 9907 445557 14229 31% 14 28178 1560 71%
c - 36.28 22 18 55 9983 462057 14042 30% 13 28178 1560 71%
c B 36.39 22 18 55 9983 465062 15576 30% 13 28178 1560 71%
c - 36.88 22 18 56 10356 478857 13865 29% 13 28178 1560 71%
c s 36.90 22 18 56 10356 478857 11197 29% 13 28178 1560 71%
c w 36.95 22 18 56 10356 478857 11196 29% 13 28178 1560 71%
c - 37.67 22 17 57 10458 495958 13451 28% 13 28178 1560 71%
c W 38.04 22 17 57 10458 496063 13505 28% 13 28178 1560 71%
c } 38.70 22 16 57 10575 511007 22213 28% 12 28178 1560 71%
c [ 38.70 22 69 57 10575 511007 22213 64% 46 28178 1560 71%
c - 38.82 22 72 58 10575 513359 15332 64% 45 28178 1560 71%
c W 40.14 22 82 58 10575 528064 26469 60% 43 28178 1560 71%
c - 40.36 22 81 59 10575 531060 18366 59% 43 28178 1560 71%
c - 41.68 22 73 60 10582 549060 19690 53% 40 28178 1560 71%
c I 42.55 22 68 60 10589 561065 28537 49% 38 28178 1560 71%
c - 43.77 28 92 61 10590 567360 21823 51% 47 28178 1560 71%
c - 47.21 32 113 62 10598 585960 23450 56% 59 28178 1560 71%
c B 48.85 32 110 62 10604 595066 31545 59% 58 28178 1560 71%
c - 50.73 26 105 63 10605 604860 23216 61% 57 28178 1560 71%
c - 53.88 32 95 64 10607 624060 23723 65% 54 28178 1560 71%
c 
c  seconds  reductions        redundant   irredundant
c         MB      restarts           trail      variables
c          level       conflicts         glue        remaining
c 
c W 55.69 32 93 64 10612 630067 29060 66% 53 28178 1560 71%
c - 58.62 32 87 65 10619 643560 24342 68% 52 28178 1560 71%
c - 62.30 32 80 66 10627 663360 24471 71% 50 28178 1560 71%
c O 62.76 32 79 66 10628 666068 26717 71% 49 28178 1560 71%
c - 63.66 32 69 67 10636 683461 21808 64% 44 28178 1560 71%
c B 64.71 32 61 67 10637 703069 35122 56% 39 28178 1560 71%
c - 64.83 32 62 68 10637 703861 20931 56% 39 28178 1560 71%
c - 67.74 33 70 69 10638 724561 24369 61% 43 28178 1560 71%
c W 71.25 33 72 69 10639 741071 39515 64% 45 28178 1560 71%
c - 72.76 41 72 70 10639 745561 27004 65% 45 28178 1560 71%
c - 77.59 41 69 71 10639 766863 28579 69% 45 28178 1560 71%
c I 79.71 41 67 71 10639 780073 40510 71% 44 28178 1560 71%
c - 80.75 41 86 72 10639 788463 28623 71% 47 28178 1560 71%
c - 85.95 55 121 73 10643 810364 28807 73% 57 28178 1560 71%
c B 87.38 55 118 73 10648 820074 37602 74% 57 28178 1560 71%
c - 89.07 41 114 74 10654 832564 27671 75% 57 28178 1560 71%
c s 89.12 41 114 74 10654 832564 25944 75% 57 28178 1560 71%
c w 89.22 41 114 74 10654 832564 25944 75% 57 28178 1560 71%
c - 93.87 41 105 75 10664 855065 27983 77% 56 28178 1560 71%
c W 95.71 41 102 75 10668 861075 32905 77% 56 28178 1560 71%
c 
c  seconds  reductions        redundant   irredundant
c         MB      restarts           trail      variables
c          level       conflicts         glue        remaining
c 
c - 98.59 41 95 76 10670 877865 28433 78% 54 28178 1560 71%
c - 103.44 41 87 77 10677 900966 29328 79% 52 28178 1560 71%
c O 103.84 41 87 77 10679 903079 31197 79% 52 28178 1560 71%
c - 104.86 41 75 78 10688 924367 25049 68% 45 28178 1560 71%
c B 106.22 41 64 78 10699 946081 40530 59% 39 28178 1560 71%
c - 106.47 41 65 79 10700 948068 25284 60% 40 28178 1560 71%
c - 109.97 41 64 80 10702 972069 28874 65% 40 28178 1560 71%
c W 114.42 41 62 80 10702 990084 44424 68% 40 28178 1560 71%
c - 116.06 41 62 81 10702 996370 30742 68% 40 28178 1560 71%
c - 122.16 41 58 82 10712 1020971 32012 72% 39 28178 1560 71%
c ] 122.57 41 57 82 10714 1023010 33640 72% 39 28178 1560 71%
c { 122.57 41 16 82 10714 1023010 33640 28% 12 28178 1560 71%
c # 123.02 41 16 82 10880 1035085 40192 27% 12 28178 1560 71%
c - 123.41 41 16 83 10890 1045872 24744 27% 12 28178 1560 71%
c - 124.48 41 15 84 10994 1071074 22760 26% 12 28178 1560 71%
c B 124.89 41 15 84 11061 1081086 28849 26% 12 28178 1560 71%
c - 125.55 41 15 85 11882 1096578 23269 26% 12 28178 1560 71%
c - 126.46 41 15 86 12537 1122378 20035 26% 12 28178 1560 71%
c W 127.48 41 15 86 12631 1128089 22843 26% 11 28178 1560 71%
c - 128.39 41 14 87 12921 1148478 19565 25% 11 28178 1560 71%
c 
c  seconds   reductions         redundant   irredundant
c          MB      restarts            trail      variables
c           level        conflicts         glue        remaining
c 
c - 129.50 41 14 88 13506 1174879 19737 25% 11 28178 1560 71%
c F 129.55 41 14 88 13527 1176090 20418 25% 11 28178 1560 71%
c - 130.51 41 13 89 14474 1201579 19056 25% 11 28178 1560 71%
c B 131.44 41 13 89 15232 1225091 30044 24% 11 28178 1560 71%
c - 131.80 41 14 90 15875 1228580 19470 26% 11 28178 1560 71%
c s 131.83 41 14 90 15875 1228580 16907 26% 11 28178 1560 71%
c w 131.89 41 14 90 15875 1228580 16905 26% 11 28178 1560 71%
c - 133.08 41 15 91 16381 1255881 24790 25% 11 28178 1560 71%
c W 135.62 41 18 91 18131 1275093 39948 28% 12 28178 1560 71%
c - 136.06 41 18 92 18911 1283482 27482 29% 12 28178 1560 71%
c - 137.29 41 18 93 19864 1311384 24640 29% 12 28178 1560 71%
c # 137.87 41 17 93 19931 1326095 33671 29% 12 28178 1560 71%
c - 138.36 41 17 94 19998 1339584 24207 28% 12 28178 1560 71%
c - 139.59 41 16 95 20389 1368086 22867 27% 12 28178 1560 71%
c B 140.03 41 16 95 20459 1378098 28459 27% 12 28178 1560 71%
c - 140.78 41 15 96 20919 1396888 22652 27% 12 28178 1560 71%
c - 141.98 41 15 97 21669 1425990 22265 27% 12 28178 1560 71%
c W 143.18 41 15 97 21702 1431099 25024 27% 12 28178 1560 71%
c - 144.86 41 18 98 23810 1455390 25167 30% 13 28178 1560 71%
c - 146.32 41 18 99 24899 1485090 26687 30% 13 28178 1560 71%
c 
c  seconds   reductions         redundant   irredundant
c          MB      restarts            trail      variables
c           level        conflicts         glue        remaining
c 
c F 146.32 41 18 99 24899 1485100 26695 30% 13 28178 1560 71%
c - 147.49 41 17 100 25202 1515091 24788 29% 12 28178 1560 71%
c B 148.71 41 16 100 25598 1540102 38455 27% 12 28178 1560 71%
c - 149.03 41 16 101 25862 1545391 23863 28% 12 28178 1560 71%
c - 150.32 41 17 102 27060 1575992 25095 28% 12 28178 1560 71%
c W 152.13 41 16 102 27424 1596103 36659 27% 12 28178 1560 71%
c - 152.58 41 16 103 27632 1606892 24592 27% 12 28178 1560 71%
c - 154.09 41 15 104 27977 1638093 24806 25% 12 28178 1560 71%
c # 154.73 41 14 104 28154 1653109 32914 25% 12 28178 1560 71%
c - 155.58 41 14 105 28428 1669594 24599 24% 11 28178 1560 71%
c s 155.61 41 14 105 28428 1669594 20660 24% 11 28178 1560 71%
c w 155.69 41 14 105 28428 1669594 20658 24% 11 28178 1560 71%
c - 156.86 41 14 106 28903 1701395 23508 24% 11 28178 1560 71%
c B 157.27 41 14 106 29085 1711112 29186 24% 11 28178 1560 71%
c - 158.78 41 16 107 31164 1733495 27466 27% 12 28178 1560 71%
c - 160.17 41 15 108 31760 1765898 24930 26% 12 28178 1560 71%
c W 161.57 41 15 108 31813 1770113 26902 26% 12 28178 1560 71%
c - 162.81 41 15 109 32522 1798598 25269 26% 12 28178 1560 71%
c F 164.04 41 14 109 32887 1830114 43079 25% 11 28178 1560 71%
c - 164.13 41 14 110 32899 1831599 26238 25% 11 28178 1560 71%
c 
c  seconds    reductions         redundant   irredundant
c          MB       restarts            trail      variables
c           level         conflicts         glue        remaining
c 
c - 165.45 41 14 111 33353 1864901 25748 25% 11 28178 1560 71%
c B 166.55 41 13 111 33799 1891115 40000 25% 11 28178 1560 71%
c - 167.43 41 16 112 35268 1898501 28310 28% 12 28178 1560 71%
c - 168.92 41 16 113 36233 1932401 28074 27% 12 28178 1560 71%
c W 171.32 41 15 113 36470 1953116 39029 26% 12 28178 1560 71%
c - 172.06 41 15 114 36610 1966602 26370 26% 12 28178 1560 71%
c - 173.69 41 14 115 37211 2001102 24840 25% 11 28178 1560 71%
c # 174.30 41 14 115 37389 2016118 32216 25% 11 28178 1560 71%
c - 175.17 41 13 116 37909 2035903 24921 25% 11 28178 1560 71%
c } 175.63 41 13 116 38178 2047011 30427 25% 11 28178 1560 71%
c [ 175.63 41 57 116 38178 2047011 30427 72% 39 28178 1560 71%
c - 177.00 41 55 117 38188 2071004 30188 64% 35 28178 1560 71%
c I 177.43 41 52 117 38193 2080119 36648 61% 34 28178 1560 71%
c - 182.36 41 63 118 38197 2106406 40366 66% 41 28178 1560 71%
c - 193.22 55 72 119 38212 2142106 43665 71% 49 28178 1560 71%
c s 193.25 55 72 119 38212 2142106 38856 71% 49 28178 1560 71%
c w 193.46 55 72 119 38212 2142106 38856 71% 49 28178 1560 71%
c B 194.15 55 73 119 38213 2145121 41642 71% 50 28178 1560 71%
c - 203.05 56 75 120 38228 2178106 46184 75% 52 28178 1560 71%
c W 213.88 56 77 120 38229 2211122 76893 77% 53 28178 1560 71%
c 
c  seconds    reductions         redundant   irredundant
c          MB       restarts            trail      variables
c           level         conflicts         glue        remaining
c 
c - 215.23 56 77 121 38229 2214406 48844 77% 53 28178 1560 71%
c - 227.12 57 77 122 38230 2251006 52157 78% 53 28178 1560 71%
c O 235.14 57 77 122 38230 2278124 77686 80% 53 28178 1560 71%
c - 235.84 41 72 123 38230 2287906 51095 75% 50 28178 1560 71%
c - 238.87 47 58 124 38231 2325107 41413 61% 40 28178 1560 71%
c B 240.49 47 54 124 38231 2346125 57209 54% 37 28178 1560 71%
c - 243.12 47 77 125 38231 2362609 44512 58% 42 28178 1560 71%
c - 250.59 53 118 126 38231 2400410 48958 66% 49 28178 1560 71%
c W 256.30 53 130 126 38231 2415129 63016 69% 52 28178 1560 71%
c - 262.17 68 120 127 38238 2438511 51439 72% 54 28178 1560 71%
c - 275.00 68 107 128 38256 2476911 51456 76% 55 28178 1560 71%
c I 278.39 68 104 128 38260 2485131 58721 77% 55 28178 1560 71%
c - 285.40 68 117 129 38267 2515611 51919 78% 65 28178 1560 71%
c - 294.61 86 120 130 38284 2554611 50307 77% 69 28178 1560 71%
c B 294.94 86 120 130 38285 2556132 51743 77% 69 28178 1560 71%
c - 302.68 68 104 131 38294 2593911 47693 78% 63 28178 1560 71%
c W 314.13 68 92 131 38296 2628138 76570 79% 59 28178 1560 71%
c - 314.83 68 90 132 38300 2633511 48979 79% 58 28178 1560 71%
c - 321.66 68 74 133 38318 2673412 46770 80% 50 28178 1560 71%
c s 321.78 68 74 133 38318 2673412 46119 80% 50 28178 1560 71%
c 
c  seconds    reductions         redundant   irredundant
c          MB       restarts            trail      variables
c           level         conflicts         glue        remaining
c 
c w 321.98 68 74 133 38318 2673412 46106 80% 50 28178 1560 71%
c O 328.21 68 66 133 38325 2701139 68966 80% 47 28178 1560 71%
c - 330.95 68 63 134 38328 2713612 51382 80% 45 28178 1560 71%
c - 339.53 68 56 135 38347 2754113 50094 80% 42 28178 1560 71%
c B 344.23 68 53 135 38355 2775141 67463 80% 40 28178 1560 71%
c - 348.63 68 51 136 38357 2794913 52590 81% 40 28178 1560 71%
c - 357.85 68 49 137 38358 2836013 53278 81% 39 28178 1560 71%
c W 363.24 68 48 137 38358 2850142 66021 81% 38 28178 1560 71%
c - 371.12 68 47 138 38358 2877413 53548 81% 38 28178 1560 71%
c - 382.33 68 46 139 38373 2919114 56458 81% 38 28178 1560 71%
c I 384.47 68 46 139 38374 2926146 62340 81% 38 28178 1560 71%
c - 390.65 68 63 140 38389 2961114 55603 81% 45 28178 1560 71%
c B 402.00 68 72 140 38404 3003147 91583 80% 52 28178 1560 71%
c - 402.19 68 72 141 38404 3003415 53285 80% 52 28178 1560 71%
c - 417.55 68 72 142 38420 3046015 53837 81% 53 28178 1560 71%
c W 431.81 68 72 142 38421 3081148 83466 81% 54 28178 1560 71%
c - 435.77 68 72 143 38421 3088916 55844 81% 54 28178 1560 71%
c - 448.02 68 72 144 38442 3132117 57162 80% 54 28178 1560 71%
c O 454.55 68 71 144 38452 3160151 81301 80% 53 28178 1560 71%
c - 455.41 68 64 145 38453 3175617 53970 72% 47 28178 1560 71%
c 
c  seconds    reductions         redundant   irredundant
c          MB       restarts            trail      variables
c           level         conflicts         glue        remaining
c 
c - 459.32 68 51 146 38474 3219417 42930 53% 38 28178 1560 71%
c s 459.47 68 51 146 38474 3219417 42393 53% 38 28178 1560 71%
c w 459.72 68 51 146 38474 3219417 42382 53% 38 28178 1560 71%
c B 462.26 68 45 146 38482 3240154 55374 47% 34 28178 1560 71%
c - 465.83 68 53 147 38484 3263518 49661 54% 38 28178 1560 71%
c - 476.55 68 61 148 38485 3307918 55763 63% 44 28178 1560 71%
c W 483.54 68 62 148 38485 3321159 67524 65% 45 28178 1560 71%
c - 492.97 68 60 149 38485 3352618 59117 70% 44 28178 1560 71%
c - 505.81 68 59 150 38486 3397619 62251 74% 43 28178 1560 71%
c I 507.25 68 59 150 38486 3403160 67458 74% 43 28178 1560 71%
c - 517.76 94 124 151 38486 3442919 61122 76% 62 28178 1560 71%
c B 532.84 94 173 151 38486 3486162 101441 78% 79 28178 1560 71%
c - 534.32 95 172 152 38486 3488520 59168 78% 79 28178 1560 71%
c - 554.20 68 147 153 38487 3534420 61722 80% 78 28178 1560 71%
c W 571.75 68 132 153 38487 3570164 93687 81% 77 28178 1560 71%
c - 576.37 88 128 154 38487 3580623 61859 81% 76 28178 1560 71%
c - 596.01 88 114 155 38487 3627124 62408 82% 74 28178 1560 71%
c ] 599.97 88 110 155 38487 3638940 72516 82% 73 28178 1560 71%
c ? 599.97 88 110 155 38487 3638940 72516 82% 73 28178 1560 71%
c 
c --- [ result ] -------------------------------------------------------------
c 
c UNKNOWN
c 
c --- [ run-time profiling ] -------------------------------------------------
c 
c process time taken by individual solving procedures
c (percentage relative to process time for solving)
c 
c       592.90   98.82% search
c       504.72   84.13% stable
c        60.92   10.15% unstable
c        27.26    4.54% walk
c         7.05    1.18% simplify
c         3.58    0.60% probe
c         1.06    0.18% vivify
c         0.60    0.10% subsume
c         0.51    0.08% ternary
c         0.20    0.03% elim
c         0.02    0.00% parse
c         0.00    0.00% lucky
c   =================================
c       599.95  100.00% solve
c 
c last line shows process time for solving
c (percentage relative to total process time)
c 
c --- [ statistics ] ---------------------------------------------------------
c 
c chronological:            561485        15.43 %  of conflicts
c conflicts:               3638940      6065.45    per second
c decisions:               5150986      8585.76    per second
c eliminated:                  468        21.30 %  of all variables
c fixed:                       169         7.69 %  of all variables
c learned:                 3598080        98.88 %  per conflict
c learned_lits:          352008753       100.00 %  learned literals
c minimized:                     0         0.00 %  learned literals
c shrunken:              139603888        39.66 %  learned literals
c minishrunken:           27273134         7.75 %  learned literals
c propagations:          416158103         0.69 M  per second
c reduced:                 2660946        73.12 %  per conflict
c rephased:                     84     43320.71    interval
c restarts:                  38487        94.55    interval
c stabilizing:                   6        62.49 %  of conflicts
c subsumed:                 862919        11.85 %  of all clauses
c strengthened:              16755         0.23 %  of all clauses
c vivified:                    224         0.00 %  of all clauses
c walked:                       27    134775.56    interval
c weakened:                  15043         2.40    average size
c 
c seconds are measured in process time for solving
c 
c --- [ resources ] ----------------------------------------------------------
c 
c total process time since initialization:       599.97    seconds
c total real time since initialization:          600.01    seconds
c maximum resident set size of process:          121.14    MB
c 
c --- [ shutting down ] ------------------------------------------------------
c 
c exit 0
